Route #1: 16 25 22 5 12 15
Route #2: 14 6 1
Route #3: 27 10 11
Route #4: 21 28 8
Route #5: 20
Route #6: 13 31 19 3 2 17
Route #7: 26
Route #8: 29 7
Route #9: 9 4 24
Route #10: 30
Route #11: 18 23

Cost: 2076.0993293530028
